63785753794780962675014,8,1,2,04,8,1,2,012,14,1,2,011,14,1,2,012,15,1,2,06,7,1,2,07,6,1,2,010,13,1,2,03,10,1,2,05,11,1,2,011,3,1,2,014,15,1,2,05,9,1,2,01,5,1,2,014,14,1,2,011,8,1,2,05,10,1,2,02,1,1,2,015,1,1,2,015,7,1,2,01,15,1,2,012,14,1,2,014,13,1,2,04,12,1,2,09,5,1,2,012,7,1,2,09,15,1,2,02,4,1,2,04,10,1,2,07,2,1,2,04,6,1,2,02,12,1,2,04,14,1,2,07,12,1,2,05,4,1,2,07,1,1,2,06,5,1,2,05,14,1,2,014,8,1,2,012,10,1,2,013,9,1,2,013,4,1,2,08,10,1,2,02,8,1,2,05,11,1,2,06,13,1,2,07,9,1,2,03,13,1,2,013,14,1,2,07,4,1,2,0